Ge43Sn173 random alloy generated from Ge
   1.00000000000000     
    18.1017729580391169   -0.0909639167109270    0.1404897163651408
    -0.0913876301790105   17.9551442088266278    0.0285337493937337
     0.1445407609302224    0.0219123870815201   18.0209246258261473
   Ge   Sn
    43   173
Direct
  0.8634462481194695  0.0791461337187338  0.2606104917599251
  0.9104751874323568  0.2042975438491003  0.0424586209597643
  0.9468669216673524  0.9318296878443101  0.4491921905095116
  0.8404941195044168  0.6579006372074085  0.6826678060751481
  0.0711893243615363  0.5945001331815257  0.1242011325945561
  0.8152615632862129  0.2005320280036275  0.5942380622440582
  0.9728095290503670  0.7938883338063031  0.4958742134930594
  0.5247867678346138  0.7611582742303827  0.9404676025443804
  0.4959270647126647  0.3642467685771388  0.2292047439512598
  0.7249449083412491  0.5386788188722579  0.6706224908361781
  0.4449798500594126  0.0442790295192409  0.6758210717908408
  0.4265348593819783  0.7337074228503987  0.1371164224216324
  0.5682846709064898  0.6621287543205481  0.2797430059277165
  0.9788461967318901  0.0273762906534123  0.3464032214006245
  0.8696457293803306  0.7160491624775865  0.9871735442918020
  0.5603009848973872  0.1523159595734791  0.3229865340886516
  0.2592583367506348  0.4886174728200012  0.5477262954077419
  0.0361726573444105  0.4626298288001121  0.1802573768880545
  0.4357650482079987  0.8722148591684673  0.9065433213045533
  0.0713266417358220  0.6800566745526296  0.2471819291083961
  0.9806642074261097  0.2731711540707593  0.8258777516497852
  0.5680606381466510  0.1993168143778559  0.7876618041447627
  0.1042274838245580  0.3305450458505869  0.8858779172178636
  0.5221225619150708  0.5638472734302296  0.7331026053246708
  0.3596615281205500  0.9413344432629642  0.0091403924834374
  0.9550724335788946  0.9545921141439013  0.7491984852762795
  0.8950272590600491  0.8249370127709330  0.8054463293960314
  0.4771663768770480  0.2637193365729849  0.1190986825830850
  0.1509028508686438  0.3766622464373497  0.3919222061505878
  0.6398280151798258  0.4078139747107888  0.2396729029016610
  0.5227125895332727  0.6161897597738371  0.5950125156813796
  0.6972514608457547  0.6846167984005599  0.6965889957274236
  0.8156631849977987  0.9378219423282191  0.2705394105810864
  0.6204922144722738  0.5503093262832636  0.2013377251526596
  0.6559374226188398  0.5452607777533089  0.5379262372998825
  0.7411499390903625  0.0766477506317482  0.4618098953433226
  0.5776914793120599  0.3055140534155770  0.0169431883982694
  0.5884436664952957  0.0134738513210485  0.6222040763327259
  0.7288302789933068  0.7104755125967480  0.0181155018785591
  0.7752473955519001  0.7607138202542484  0.1516796179694425
  0.7444213646714495  0.4241384139184499  0.4727797486881464
  0.0406140516541075  0.8183048925466008  0.8412657190661414
  0.2516451724675313  0.4927434760555503  0.7029064035458005
  0.8327117373545024  0.3504011796210713  0.8127685309077671
  0.7086163007507158  0.6711733863045756  0.8584703169961676
  0.5881685340777525  0.8655648289211404  0.5558024828663324
  0.0513002205166551  0.1610112753376418  0.4247737374166257
  0.4402122960748669  0.4717356713965325  0.5768676582248394
  0.4575706619070393  0.0848468511686179  0.8306583304712837
  0.9179862640432904  0.5918370218233140  0.0726637801947757
  0.9044056927597606  0.8073094565779837  0.6451977087446891
  0.2817014451487426  0.3374619800466727  0.5895995033638340
  0.8782636574228172  0.6637581128906869  0.8330737895540231
  0.6220339520492063  0.5323338731842214  0.3708974701395381
  0.3060860516999275  0.3487979606240670  0.7613298006022154
  0.1109328262825524  0.5581100448055220  0.6524284484627833
  0.1462964542590138  0.2418768865041991  0.5679858514345861
  0.5309753084721552  0.3064878190973365  0.3758667908740712
  0.1525826257749876  0.3675749189591996  0.2281852357565086
  0.4275214092761201  0.4125876177021727  0.0781054350450680
  0.2275946298101851  0.5748437306667112  0.1082430436777666
  0.6616628274153074  0.7058889856232577  0.5457618031876096
  0.2727882800746373  0.9883840588630506  0.6816499389523292
  0.7004883722913751  0.3139305972258609  0.3633256646275800
  0.6430668657980815  0.0559723442792737  0.7691874093409232
  0.0087272869132120  0.3087264282806125  0.3418502496560348
  0.0881407231342951  0.1870465534115522  0.2458595771302874
  0.0225033454029142  0.3466986679759537  0.5127441013845480
  0.7202681998317659  0.1437153240259940  0.3132791213523308
  0.4784304482431567  0.6255291902489577  0.4441684439557719
  0.2673782846004154  0.9173048660669393  0.5193495840243995
  0.9789891333352139  0.6455236360700983  0.4219962205242775
  0.8790726597475778  0.1490301572959793  0.4159684194122781
  0.0727276515808953  0.0085920970048966  0.5219719956480721
  0.3189861773376685  0.2458326145615491  0.0805750550227325
  0.1498498400566616  0.2620118148073931  0.7493550185714646
  0.5081737384906926  0.0304163637958384  0.2368284871208262
  0.8864139255732006  0.5004416380693848  0.6713271033749745
  0.7637905720835313  0.3745576375986067  0.6311445067351851
  0.9777123352468391  0.1486686611016442  0.5874002766456743
  0.2570194693422380  0.8114461355453706  0.6914001344091604
  0.0897160345789917  0.3902413184384532  0.6605723549246408
  0.0667368098094205  0.5568338130284421  0.9645626225744693
  0.4758277944776813  0.8542907957010982  0.2463358647773386
  0.5039156578247094  0.3982419872117899  0.9091057354339764
  0.9209314046702364  0.4924759845181091  0.4974497751296733
  0.4452989104084460  0.2972879248671461  0.5871089346428262
  0.4662200329147811  0.4609097883036828  0.4057196875886642
  0.9375350299831536  0.7601795179482124  0.1507508500514766
  0.4069187222078491  0.6904433649396127  0.2898916721808029
  0.6740874536809403  0.9898404344535993  0.2358816755034319
  0.3313332863379785  0.4345070636400395  0.9143419120247610
  0.3753275023048639  0.5467738281430190  0.7885674618150139
  0.9270222655277018  0.3051022410547227  0.6637607888597503
  0.2557100212008462  0.2043237541178857  0.2393652484819199
  0.1357388203480938  0.2388838822481097  0.0792420318453906
  0.6639751557826395  0.7432804443798797  0.3777715666722272
  0.2092687095882215  0.6518847836591806  0.7771067157214031
  0.6136696493202378  0.1879437009352105  0.1650020281289387
  0.6804507311288895  0.2272147319595638  0.5157105174080042
  0.9805196781767779  0.3008905456236065  0.1537011611607646
  0.8636271084941805  0.4309226459618212  0.1195114573420841
  0.1345435509806972  0.0264716526481146  0.3238387824003347
  0.7779048889846384  0.2409758041627872  0.1326425724423306
  0.2150104173364751  0.2271522282441819  0.4059688184393362
  0.7456516071722468  0.5006348869368025  0.8231230936920234
  0.1943749809271237  0.8690339808042250  0.8400862070949245
  0.8924881519011284  0.5162636768422747  0.9185522031420689
  0.6558082196314519  0.3436345666475922  0.8382686317997486
  0.1040935355452304  0.7566295298569707  0.0919476753834775
  0.4596257974217364  0.5229775512583171  0.2428079590962545
  0.1505727293390748  0.8934120669254841  0.1812810160291763
  0.1929189652968696  0.6915775678578927  0.5804897904879405
  0.3030720583651932  0.0334300134383450  0.3449273065018676
  0.3062481244093134  0.6011793525627047  0.4377591986971209
  0.6292175443584358  0.9151252670565651  0.3879191888154851
  0.6029502498426609  0.1724425271520564  0.9409444369444160
  0.3244882410733796  0.8998682453091735  0.1663043423970698
  0.8490428057654404  0.2820913990564695  0.2856883058375229
  0.1744669533125895  0.0604094202996321  0.1511681021982208
  0.0359194637266148  0.6171006653244254  0.7991356823800368
  0.3055172762733754  0.7716786741436982  0.9339355561037848
  0.2288738942274665  0.7143870682644516  0.2681573969905990
  0.4090691963432451  0.1110605488209851  0.4769200988173797
  0.4253707628222750  0.2379140369813176  0.9258936171412930
  0.3727231375354715  0.7204171850390240  0.7797989822466049
  0.0698128917433855  0.7594350091687776  0.6941032130855576
  0.7989526245696675  0.4563382759208545  0.2793362606613600
  0.1489541495050603  0.6787736597685148  0.4172305935709656
  0.3223783870474445  0.8528547123710841  0.3441041907534791
  0.1507545618644721  0.8566542307237934  0.3527975632904406
  0.4762235365727315  0.3274746821009520  0.7574698793406065
  0.7680134864181869  0.6001830037795406  0.1727372711151755
  0.3018862335541722  0.4224603003451231  0.3995930546922683
  0.9624587276556700  0.4727035345737354  0.3257648104219284
  0.7575010433550112  0.2699682261291351  0.9589099770350443
  0.4922946094955990  0.7972072966490199  0.4219237842697401
  0.9156437018847012  0.3509270041107140  0.9709457139702498
  0.5747735291250299  0.6934682951732274  0.0860099591257976
  0.5595328997336799  0.9735757304821486  0.9045763445421587
  0.8285281062375210  0.8958268456423542  0.9304936269316688
  0.7353152793775138  0.5418378110549184  0.0072066415185796
  0.5820088448165880  0.8921855733839293  0.7413822775247267
  0.3993745165457196  0.5848883940382771  0.0913536681622922
  0.6661927751957648  0.8297534590222456  0.9230893431114272
  0.9973639555657751  0.4457783798154141  0.7978879158745000
  0.3254636346096560  0.3744179974072800  0.2296727410618426
  0.3522539322707605  0.0670254747166575  0.1797256042492811
  0.5849363206842690  0.5508728928116132  0.8805414490656870
  0.6680830432526497  0.9184238619211605  0.0734127719148934
  0.5481528324882680  0.7217510821338439  0.7778391103150430
  0.5952617849649234  0.3877346101722810  0.5271303317473309
  0.5665564299424493  0.5193657980962914  0.0508667980623960
  0.9907815929014302  0.8020116250217751  0.3266486409506760
  0.2859039866652612  0.5434671028323380  0.2631543179684053
  0.0448560740870186  0.1764421159042158  0.9450577944260016
  0.3022819351202884  0.0063115221938910  0.8546009637199714
  0.8190006250059468  0.7768082686154315  0.3083592208776587
  0.3480668253611275  0.6192657988431249  0.6186808300651049
  0.5814388891534684  0.0761792989951011  0.4653794755752770
  0.1256714178023292  0.5274015052725084  0.3137642959200893
  0.7820372775689307  0.5747260835650720  0.4231333463872817
  0.2766381585498557  0.7457707419789787  0.0982573878195530
  0.2310785145503465  0.1042089360415882  0.9942490355785176
  0.7244710929307233  0.2254565999473773  0.7259971289333638
  0.4936346553822858  0.8716816293470749  0.0724040934516639
  0.1256652421627439  0.7147833743723829  0.9245001261727267
  0.9755879483642267  0.1085911756106801  0.1527069960337355
  0.8388928894470383  0.9066440249432025  0.1045955872525877
  0.8025370984294695  0.9974522715530262  0.7821952170669215
  0.4275937617296887  0.9432220945804336  0.5560861606992341
  0.7771395721785631  0.0704789142447003  0.1110301324279936
  0.7217589384441515  0.0467964174764220  0.9437510623447670
  0.3168641476979718  0.1789507430957170  0.7964153765261227
  0.5580416284032976  0.0517091487948539  0.0705477184513468
  0.4607505008249823  0.7721165183638060  0.6214083423962133
  0.1043474827095515  0.5055862965680890  0.4864961356171913
  0.7927141402632848  0.9286714235926496  0.4291355218423462
  0.2319107390300943  0.0798762238265933  0.4984119892012623
  0.3343314865526754  0.1506715767950232  0.6271630128516340
  0.9761976205450242  0.6440686837876497  0.5959615828487440
  0.2045877693449248  0.9276012060713957  0.0042827645997595
  0.9825626176957135  0.1181230265348199  0.7655315727424029
  0.6941631092722383  0.3881374079750868  0.0902889366852802
  0.9126869797943882  0.9863888860972457  0.5970284473061834
  0.4409097423883250  0.6263079924142184  0.9320850401984409
  0.4234045865914310  0.2131371278418697  0.2688120846670524
  0.7377392417476709  0.8321769333667501  0.7624403319043379
  0.5510874123085677  0.1706440937547908  0.6190336438259048
  0.2627517256946539  0.5969774676224693  0.9418765495244682
  0.1183629164380061  0.8385154025711665  0.5262807153125940
  0.7539664845639864  0.0451238820912829  0.6161140992544555
  0.9796435210115790  0.8302203602889033  0.9922250826783193
  0.0778396892238046  0.3983993723390734  0.0282714607317030
  0.3748395334755811  0.2699547838496104  0.4357364337621707
  0.9749165142443563  0.9306445783408438  0.2159599570328334
  0.8957797770144000  0.0578602428925152  0.9696835277618504
  0.8166875153568618  0.7549971796126698  0.4823947499998215
  0.4590671559766741  0.9672089531570932  0.3885660443584043
  0.0397086420789896  0.9796475914073998  0.0619148090367637
  0.8294822413331208  0.1584842190788328  0.8415313812270553
  0.9107345371680478  0.6244895617177271  0.2631223925993925
  0.8588971452825923  0.3127726375187456  0.4782217193613462
  0.6355982986842179  0.8062254361351717  0.2122201489963227
  0.2515372564897108  0.2769179306339057  0.9261024904878987
  0.5932301006622187  0.4315572974650106  0.6910434404136195
  0.7519911193829369  0.8719330904783583  0.5964397155845534
  0.0403347975233609  0.9837773636088670  0.8844213504203785
  0.1700586447150670  0.4740316271472287  0.8471373886295299
  0.3393367494572815  0.7664590103453187  0.5001080486986892
  0.1345371207660052  0.0982696689050513  0.6635587742163942
  0.0986157612682788  0.9272005453322172  0.6834290663999758
  0.4051799199949676  0.0924159311570366  0.0169926376489655
  0.2462838917564352  0.4109697114694545  0.0687992923165460
  0.4115521559381013  0.8945088139558773  0.7472604568178388
  0.1592713948975412  0.1039136655002349  0.8354984305127523
 
  0.00000000E+00  0.00000000E+00  0.00000000E+00
  0.00000000E+00  0.00000000E+00  0.00000000E+00
  0.00000000E+00  0.00000000E+00  0.00000000E+00
  0.00000000E+00  0.00000000E+00  0.00000000E+00
  0.00000000E+00  0.00000000E+00  0.00000000E+00
  0.00000000E+00  0.00000000E+00  0.00000000E+00
  0.00000000E+00  0.00000000E+00  0.00000000E+00
  0.00000000E+00  0.00000000E+00  0.00000000E+00
  0.00000000E+00  0.00000000E+00  0.00000000E+00
  0.00000000E+00  0.00000000E+00  0.00000000E+00
  0.00000000E+00  0.00000000E+00  0.00000000E+00
  0.00000000E+00  0.00000000E+00  0.00000000E+00
  0.00000000E+00  0.00000000E+00  0.00000000E+00
  0.00000000E+00  0.00000000E+00  0.00000000E+00
  0.00000000E+00  0.00000000E+00  0.00000000E+00
  0.00000000E+00  0.00000000E+00  0.00000000E+00
  0.00000000E+00  0.00000000E+00  0.00000000E+00
  0.00000000E+00  0.00000000E+00  0.00000000E+00
  0.00000000E+00  0.00000000E+00  0.00000000E+00
  0.00000000E+00  0.00000000E+00  0.00000000E+00
  0.00000000E+00  0.00000000E+00  0.00000000E+00
  0.00000000E+00  0.00000000E+00  0.00000000E+00
  0.00000000E+00  0.00000000E+00  0.00000000E+00
  0.00000000E+00  0.00000000E+00  0.00000000E+00
  0.00000000E+00  0.00000000E+00  0.00000000E+00
  0.00000000E+00  0.00000000E+00  0.00000000E+00
  0.00000000E+00  0.00000000E+00  0.00000000E+00
  0.00000000E+00  0.00000000E+00  0.00000000E+00
  0.00000000E+00  0.00000000E+00  0.00000000E+00
  0.00000000E+00  0.00000000E+00  0.00000000E+00
  0.00000000E+00  0.00000000E+00  0.00000000E+00
  0.00000000E+00  0.00000000E+00  0.00000000E+00
  0.00000000E+00  0.00000000E+00  0.00000000E+00
  0.00000000E+00  0.00000000E+00  0.00000000E+00
  0.00000000E+00  0.00000000E+00  0.00000000E+00
  0.00000000E+00  0.00000000E+00  0.00000000E+00
  0.00000000E+00  0.00000000E+00  0.00000000E+00
  0.00000000E+00  0.00000000E+00  0.00000000E+00
  0.00000000E+00  0.00000000E+00  0.00000000E+00
  0.00000000E+00  0.00000000E+00  0.00000000E+00
  0.00000000E+00  0.00000000E+00  0.00000000E+00
  0.00000000E+00  0.00000000E+00  0.00000000E+00
  0.00000000E+00  0.00000000E+00  0.00000000E+00
  0.00000000E+00  0.00000000E+00  0.00000000E+00
  0.00000000E+00  0.00000000E+00  0.00000000E+00
  0.00000000E+00  0.00000000E+00  0.00000000E+00
  0.00000000E+00  0.00000000E+00  0.00000000E+00
  0.00000000E+00  0.00000000E+00  0.00000000E+00
  0.00000000E+00  0.00000000E+00  0.00000000E+00
  0.00000000E+00  0.00000000E+00  0.00000000E+00
  0.00000000E+00  0.00000000E+00  0.00000000E+00
  0.00000000E+00  0.00000000E+00  0.00000000E+00
  0.00000000E+00  0.00000000E+00  0.00000000E+00
  0.00000000E+00  0.00000000E+00  0.00000000E+00
  0.00000000E+00  0.00000000E+00  0.00000000E+00
  0.00000000E+00  0.00000000E+00  0.00000000E+00
  0.00000000E+00  0.00000000E+00  0.00000000E+00
  0.00000000E+00  0.00000000E+00  0.00000000E+00
  0.00000000E+00  0.00000000E+00  0.00000000E+00
  0.00000000E+00  0.00000000E+00  0.00000000E+00
  0.00000000E+00  0.00000000E+00  0.00000000E+00
  0.00000000E+00  0.00000000E+00  0.00000000E+00
  0.00000000E+00  0.00000000E+00  0.00000000E+00
  0.00000000E+00  0.00000000E+00  0.00000000E+00
  0.00000000E+00  0.00000000E+00  0.00000000E+00
  0.00000000E+00  0.00000000E+00  0.00000000E+00
  0.00000000E+00  0.00000000E+00  0.00000000E+00
  0.00000000E+00  0.00000000E+00  0.00000000E+00
  0.00000000E+00  0.00000000E+00  0.00000000E+00
  0.00000000E+00  0.00000000E+00  0.00000000E+00
  0.00000000E+00  0.00000000E+00  0.00000000E+00
  0.00000000E+00  0.00000000E+00  0.00000000E+00
  0.00000000E+00  0.00000000E+00  0.00000000E+00
  0.00000000E+00  0.00000000E+00  0.00000000E+00
  0.00000000E+00  0.00000000E+00  0.00000000E+00
  0.00000000E+00  0.00000000E+00  0.00000000E+00
  0.00000000E+00  0.00000000E+00  0.00000000E+00
  0.00000000E+00  0.00000000E+00  0.00000000E+00
  0.00000000E+00  0.00000000E+00  0.00000000E+00
  0.00000000E+00  0.00000000E+00  0.00000000E+00
  0.00000000E+00  0.00000000E+00  0.00000000E+00
  0.00000000E+00  0.00000000E+00  0.00000000E+00
  0.00000000E+00  0.00000000E+00  0.00000000E+00
  0.00000000E+00  0.00000000E+00  0.00000000E+00
  0.00000000E+00  0.00000000E+00  0.00000000E+00
  0.00000000E+00  0.00000000E+00  0.00000000E+00
  0.00000000E+00  0.00000000E+00  0.00000000E+00
  0.00000000E+00  0.00000000E+00  0.00000000E+00
  0.00000000E+00  0.00000000E+00  0.00000000E+00
  0.00000000E+00  0.00000000E+00  0.00000000E+00
  0.00000000E+00  0.00000000E+00  0.00000000E+00
  0.00000000E+00  0.00000000E+00  0.00000000E+00
  0.00000000E+00  0.00000000E+00  0.00000000E+00
  0.00000000E+00  0.00000000E+00  0.00000000E+00
  0.00000000E+00  0.00000000E+00  0.00000000E+00
  0.00000000E+00  0.00000000E+00  0.00000000E+00
  0.00000000E+00  0.00000000E+00  0.00000000E+00
  0.00000000E+00  0.00000000E+00  0.00000000E+00
  0.00000000E+00  0.00000000E+00  0.00000000E+00
  0.00000000E+00  0.00000000E+00  0.00000000E+00
  0.00000000E+00  0.00000000E+00  0.00000000E+00
  0.00000000E+00  0.00000000E+00  0.00000000E+00
  0.00000000E+00  0.00000000E+00  0.00000000E+00
  0.00000000E+00  0.00000000E+00  0.00000000E+00
  0.00000000E+00  0.00000000E+00  0.00000000E+00
  0.00000000E+00  0.00000000E+00  0.00000000E+00
  0.00000000E+00  0.00000000E+00  0.00000000E+00
  0.00000000E+00  0.00000000E+00  0.00000000E+00
  0.00000000E+00  0.00000000E+00  0.00000000E+00
  0.00000000E+00  0.00000000E+00  0.00000000E+00
  0.00000000E+00  0.00000000E+00  0.00000000E+00
  0.00000000E+00  0.00000000E+00  0.00000000E+00
  0.00000000E+00  0.00000000E+00  0.00000000E+00
  0.00000000E+00  0.00000000E+00  0.00000000E+00
  0.00000000E+00  0.00000000E+00  0.00000000E+00
  0.00000000E+00  0.00000000E+00  0.00000000E+00
  0.00000000E+00  0.00000000E+00  0.00000000E+00
  0.00000000E+00  0.00000000E+00  0.00000000E+00
  0.00000000E+00  0.00000000E+00  0.00000000E+00
  0.00000000E+00  0.00000000E+00  0.00000000E+00
  0.00000000E+00  0.00000000E+00  0.00000000E+00
  0.00000000E+00  0.00000000E+00  0.00000000E+00
  0.00000000E+00  0.00000000E+00  0.00000000E+00
  0.00000000E+00  0.00000000E+00  0.00000000E+00
  0.00000000E+00  0.00000000E+00  0.00000000E+00
  0.00000000E+00  0.00000000E+00  0.00000000E+00
  0.00000000E+00  0.00000000E+00  0.00000000E+00
  0.00000000E+00  0.00000000E+00  0.00000000E+00
  0.00000000E+00  0.00000000E+00  0.00000000E+00
  0.00000000E+00  0.00000000E+00  0.00000000E+00
  0.00000000E+00  0.00000000E+00  0.00000000E+00
  0.00000000E+00  0.00000000E+00  0.00000000E+00
  0.00000000E+00  0.00000000E+00  0.00000000E+00
  0.00000000E+00  0.00000000E+00  0.00000000E+00
  0.00000000E+00  0.00000000E+00  0.00000000E+00
  0.00000000E+00  0.00000000E+00  0.00000000E+00
  0.00000000E+00  0.00000000E+00  0.00000000E+00
  0.00000000E+00  0.00000000E+00  0.00000000E+00
  0.00000000E+00  0.00000000E+00  0.00000000E+00
  0.00000000E+00  0.00000000E+00  0.00000000E+00
  0.00000000E+00  0.00000000E+00  0.00000000E+00
  0.00000000E+00  0.00000000E+00  0.00000000E+00
  0.00000000E+00  0.00000000E+00  0.00000000E+00
  0.00000000E+00  0.00000000E+00  0.00000000E+00
  0.00000000E+00  0.00000000E+00  0.00000000E+00
  0.00000000E+00  0.00000000E+00  0.00000000E+00
  0.00000000E+00  0.00000000E+00  0.00000000E+00
  0.00000000E+00  0.00000000E+00  0.00000000E+00
  0.00000000E+00  0.00000000E+00  0.00000000E+00
  0.00000000E+00  0.00000000E+00  0.00000000E+00
  0.00000000E+00  0.00000000E+00  0.00000000E+00
  0.00000000E+00  0.00000000E+00  0.00000000E+00
  0.00000000E+00  0.00000000E+00  0.00000000E+00
  0.00000000E+00  0.00000000E+00  0.00000000E+00
  0.00000000E+00  0.00000000E+00  0.00000000E+00
  0.00000000E+00  0.00000000E+00  0.00000000E+00
  0.00000000E+00  0.00000000E+00  0.00000000E+00
  0.00000000E+00  0.00000000E+00  0.00000000E+00
  0.00000000E+00  0.00000000E+00  0.00000000E+00
  0.00000000E+00  0.00000000E+00  0.00000000E+00
  0.00000000E+00  0.00000000E+00  0.00000000E+00
  0.00000000E+00  0.00000000E+00  0.00000000E+00
  0.00000000E+00  0.00000000E+00  0.00000000E+00
  0.00000000E+00  0.00000000E+00  0.00000000E+00
  0.00000000E+00  0.00000000E+00  0.00000000E+00
  0.00000000E+00  0.00000000E+00  0.00000000E+00
  0.00000000E+00  0.00000000E+00  0.00000000E+00
  0.00000000E+00  0.00000000E+00  0.00000000E+00
  0.00000000E+00  0.00000000E+00  0.00000000E+00
  0.00000000E+00  0.00000000E+00  0.00000000E+00
  0.00000000E+00  0.00000000E+00  0.00000000E+00
  0.00000000E+00  0.00000000E+00  0.00000000E+00
  0.00000000E+00  0.00000000E+00  0.00000000E+00
  0.00000000E+00  0.00000000E+00  0.00000000E+00
  0.00000000E+00  0.00000000E+00  0.00000000E+00
  0.00000000E+00  0.00000000E+00  0.00000000E+00
  0.00000000E+00  0.00000000E+00  0.00000000E+00
  0.00000000E+00  0.00000000E+00  0.00000000E+00
  0.00000000E+00  0.00000000E+00  0.00000000E+00
  0.00000000E+00  0.00000000E+00  0.00000000E+00
  0.00000000E+00  0.00000000E+00  0.00000000E+00
  0.00000000E+00  0.00000000E+00  0.00000000E+00
  0.00000000E+00  0.00000000E+00  0.00000000E+00
  0.00000000E+00  0.00000000E+00  0.00000000E+00
  0.00000000E+00  0.00000000E+00  0.00000000E+00
  0.00000000E+00  0.00000000E+00  0.00000000E+00
  0.00000000E+00  0.00000000E+00  0.00000000E+00
  0.00000000E+00  0.00000000E+00  0.00000000E+00
  0.00000000E+00  0.00000000E+00  0.00000000E+00
  0.00000000E+00  0.00000000E+00  0.00000000E+00
  0.00000000E+00  0.00000000E+00  0.00000000E+00
  0.00000000E+00  0.00000000E+00  0.00000000E+00
  0.00000000E+00  0.00000000E+00  0.00000000E+00
  0.00000000E+00  0.00000000E+00  0.00000000E+00
  0.00000000E+00  0.00000000E+00  0.00000000E+00
  0.00000000E+00  0.00000000E+00  0.00000000E+00
  0.00000000E+00  0.00000000E+00  0.00000000E+00
  0.00000000E+00  0.00000000E+00  0.00000000E+00
  0.00000000E+00  0.00000000E+00  0.00000000E+00
  0.00000000E+00  0.00000000E+00  0.00000000E+00
  0.00000000E+00  0.00000000E+00  0.00000000E+00
  0.00000000E+00  0.00000000E+00  0.00000000E+00
  0.00000000E+00  0.00000000E+00  0.00000000E+00
  0.00000000E+00  0.00000000E+00  0.00000000E+00
  0.00000000E+00  0.00000000E+00  0.00000000E+00
  0.00000000E+00  0.00000000E+00  0.00000000E+00
  0.00000000E+00  0.00000000E+00  0.00000000E+00
  0.00000000E+00  0.00000000E+00  0.00000000E+00
  0.00000000E+00  0.00000000E+00  0.00000000E+00
  0.00000000E+00  0.00000000E+00  0.00000000E+00
  0.00000000E+00  0.00000000E+00  0.00000000E+00
  0.00000000E+00  0.00000000E+00  0.00000000E+00
  0.00000000E+00  0.00000000E+00  0.00000000E+00
  0.00000000E+00  0.00000000E+00  0.00000000E+00
  0.00000000E+00  0.00000000E+00  0.00000000E+00
  0.00000000E+00  0.00000000E+00  0.00000000E+00
